CLW01
Position Depot: Random
Horizon for Depot: Large
Position of customers: Cluster
Distribution of the demand: Small
Width of time windows: Wide
Distribution of the service: Large

VEHICLE 
NUMBER 	 CAPACITY 
 10 	 	 75 
 
CUSTOMER
CUST NO. 	 XCOORD.  	 YCOORD. 	 DEMAND 	 READY TIME 	 DUE DATE 	 SERVICE TIME 
 0 	 	 699 	 	 552 	 	 0 	 	 0 	 	 4207 	 	 0 
  1 	 	 916 	 	 390 	 	 7 	 	 1543 	 	 1747 	 	 146 
  2 	 	 831 	 	 735 	 	 8 	 	 3190 	 	 3542 	 	 141 
  3 	 	 892 	 	 355 	 	 6 	 	 2216 	 	 2705 	 	 162 
  4 	 	 963 	 	 174 	 	 5 	 	 3259 	 	 3753 	 	 171 
  5 	 	 946 	 	 345 	 	 9 	 	 1488 	 	 1907 	 	 160 
  6 	 	 613 	 	 581 	 	 7 	 	 3524 	 	 3856 	 	 176 
  7 	 	 762 	 	 684 	 	 5 	 	 3692 	 	 3943 	 	 113 
  8 	 	 909 	 	 333 	 	 6 	 	 559 	 	 965 	 	 146 
  9 	 	 809 	 	 493 	 	 9 	 	 2718 	 	 3010 	 	 144 
  10 	 	 910 	 	 158 	 	 5 	 	 290 	 	 708 	 	 152 
  11 	 	 936 	 	 387 	 	 8 	 	 1519 	 	 1886 	 	 119 
  12 	 	 941 	 	 151 	 	 10 	 	 2162 	 	 2431 	 	 171 
  13 	 	 781 	 	 791 	 	 10 	 	 1089 	 	 1507 	 	 108 
  14 	 	 944 	 	 234 	 	 5 	 	 1389 	 	 1722 	 	 191 
  15 	 	 904 	 	 379 	 	 7 	 	 3120 	 	 3569 	 	 168 
  16 	 	 981 	 	 281 	 	 10 	 	 3092 	 	 3325 	 	 190 
  17 	 	 769 	 	 402 	 	 6 	 	 3403 	 	 3827 	 	 140 
  18 	 	 947 	 	 82 	 	 7 	 	 3856 	 	 4167 	 	 125 
  19 	 	 818 	 	 335 	 	 6 	 	 1052 	 	 1467 	 	 159 
  20 	 	 911 	 	 331 	 	 6 	 	 77 	 	 336 	 	 133 
  21 	 	 794 	 	 726 	 	 5 	 	 2442 	 	 2822 	 	 181 
  22 	 	 788 	 	 342 	 	 8 	 	 2900 	 	 3190 	 	 184 
  23 	 	 904 	 	 766 	 	 10 	 	 1394 	 	 1668 	 	 145 
  24 	 	 846 	 	 221 	 	 8 	 	 1737 	 	 2018 	 	 123 
  25 	 	 921 	 	 422 	 	 6 	 	 2982 	 	 3386 	 	 164 
  26 	 	 887 	 	 73 	 	 5 	 	 2238 	 	 2485 	 	 133 
  27 	 	 841 	 	 757 	 	 10 	 	 1391 	 	 1798 	 	 191 
  28 	 	 999 	 	 379 	 	 5 	 	 1383 	 	 1611 	 	 152 
  29 	 	 811 	 	 775 	 	 5 	 	 2554 	 	 2861 	 	 180 
  30 	 	 833 	 	 259 	 	 5 	 	 304 	 	 538 	 	 194 
  31 	 	 983 	 	 318 	 	 9 	 	 1950 	 	 2281 	 	 157 
  32 	 	 959 	 	 152 	 	 9 	 	 3810 	 	 4169 	 	 196 
  33 	 	 963 	 	 393 	 	 10 	 	 765 	 	 1062 	 	 113 
  34 	 	 831 	 	 807 	 	 6 	 	 293 	 	 728 	 	 165 
  35 	 	 835 	 	 399 	 	 7 	 	 2536 	 	 2773 	 	 151 
  36 	 	 806 	 	 475 	 	 9 	 	 1725 	 	 2083 	 	 121 
  37 	 	 803 	 	 336 	 	 7 	 	 1729 	 	 2156 	 	 183 
  38 	 	 930 	 	 307 	 	 7 	 	 3218 	 	 3629 	 	 186 
  39 	 	 919 	 	 667 	 	 6 	 	 2172 	 	 2460 	 	 180 
  40 	 	 948 	 	 385 	 	 7 	 	 287 	 	 622 	 	 130 
  41 	 	 928 	 	 285 	 	 5 	 	 1309 	 	 1714 	 	 136 
  42 	 	 875 	 	 427 	 	 5 	 	 1789 	 	 2285 	 	 125 
  43 	 	 964 	 	 486 	 	 10 	 	 27 	 	 300 	 	 147 
  44 	 	 716 	 	 728 	 	 6 	 	 3251 	 	 3575 	 	 142 
  45 	 	 800 	 	 738 	 	 9 	 	 957 	 	 1287 	 	 193 
  46 	 	 979 	 	 246 	 	 5 	 	 3211 	 	 3636 	 	 120 
  47 	 	 920 	 	 196 	 	 5 	 	 955 	 	 1296 	 	 136 
  48 	 	 816 	 	 134 	 	 8 	 	 19 	 	 477 	 	 115 
  49 	 	 906 	 	 276 	 	 8 	 	 961 	 	 1407 	 	 134 
  50 	 	 880 	 	 818 	 	 5 	 	 127 	 	 353 	 	 182 
  51 	 	 951 	 	 708 	 	 5 	 	 3480 	 	 3927 	 	 117 
  52 	 	 852 	 	 705 	 	 10 	 	 2081 	 	 2356 	 	 122 
  53 	 	 943 	 	 372 	 	 9 	 	 3490 	 	 3725 	 	 103 
  54 	 	 863 	 	 195 	 	 5 	 	 3397 	 	 3834 	 	 103 
  55 	 	 909 	 	 728 	 	 10 	 	 43 	 	 532 	 	 138 
  56 	 	 844 	 	 401 	 	 10 	 	 122 	 	 526 	 	 149 
  57 	 	 802 	 	 455 	 	 6 	 	 1742 	 	 1954 	 	 188 
  58 	 	 914 	 	 295 	 	 6 	 	 827 	 	 1100 	 	 183 
  59 	 	 937 	 	 330 	 	 8 	 	 764 	 	 1020 	 	 187 
  60 	 	 861 	 	 464 	 	 5 	 	 2004 	 	 2297 	 	 170 
  61 	 	 761 	 	 743 	 	 9 	 	 3020 	 	 3297 	 	 152 
  62 	 	 896 	 	 384 	 	 7 	 	 544 	 	 977 	 	 145 
  63 	 	 994 	 	 91 	 	 9 	 	 3876 	 	 4207 	 	 197 
  64 	 	 825 	 	 431 	 	 10 	 	 1863 	 	 2269 	 	 121 
  65 	 	 827 	 	 738 	 	 6 	 	 164 	 	 397 	 	 142 
  66 	 	 940 	 	 258 	 	 6 	 	 3287 	 	 3588 	 	 153 
  67 	 	 896 	 	 435 	 	 7 	 	 3353 	 	 3775 	 	 196 
  68 	 	 877 	 	 263 	 	 6 	 	 1471 	 	 1856 	 	 142 
  69 	 	 855 	 	 349 	 	 7 	 	 -89 	 	 281 	 	 170 
  70 	 	 909 	 	 320 	 	 9 	 	 2141 	 	 2543 	 	 131 
  71 	 	 945 	 	 344 	 	 7 	 	 3731 	 	 4207 	 	 162 
  72 	 	 658 	 	 609 	 	 10 	 	 817 	 	 1028 	 	 122 
  73 	 	 999 	 	 102 	 	 6 	 	 516 	 	 867 	 	 186 
  74 	 	 823 	 	 470 	 	 7 	 	 103 	 	 351 	 	 140 
  75 	 	 892 	 	 299 	 	 5 	 	 2010 	 	 2275 	 	 163 
  76 	 	 879 	 	 354 	 	 10 	 	 62 	 	 294 	 	 101 
  77 	 	 803 	 	 707 	 	 6 	 	 342 	 	 789 	 	 192 
  78 	 	 925 	 	 438 	 	 6 	 	 1684 	 	 1991 	 	 153 
  79 	 	 873 	 	 339 	 	 9 	 	 741 	 	 1166 	 	 186 
  80 	 	 943 	 	 400 	 	 10 	 	 3595 	 	 3810 	 	 116 
  81 	 	 965 	 	 195 	 	 8 	 	 226 	 	 499 	 	 130 
  82 	 	 949 	 	 281 	 	 7 	 	 3321 	 	 3553 	 	 174 
  83 	 	 835 	 	 767 	 	 5 	 	 3134 	 	 3549 	 	 144 
  84 	 	 915 	 	 414 	 	 10 	 	 3110 	 	 3331 	 	 103 
  85 	 	 777 	 	 656 	 	 5 	 	 3633 	 	 3864 	 	 149 
  86 	 	 926 	 	 282 	 	 10 	 	 828 	 	 1267 	 	 121 
  87 	 	 831 	 	 293 	 	 10 	 	 476 	 	 815 	 	 127 
  88 	 	 921 	 	 176 	 	 10 	 	 3426 	 	 3664 	 	 166 
  89 	 	 750 	 	 798 	 	 7 	 	 1945 	 	 2256 	 	 123 
  90 	 	 739 	 	 793 	 	 9 	 	 293 	 	 600 	 	 118 
  91 	 	 933 	 	 392 	 	 8 	 	 3513 	 	 3867 	 	 170 
  92 	 	 860 	 	 346 	 	 9 	 	 2938 	 	 3178 	 	 120 
  93 	 	 755 	 	 652 	 	 9 	 	 1846 	 	 2279 	 	 189 
  94 	 	 735 	 	 179 	 	 9 	 	 3680 	 	 3967 	 	 108 
  95 	 	 884 	 	 449 	 	 7 	 	 1545 	 	 2042 	 	 164 
  96 	 	 836 	 	 686 	 	 10 	 	 1023 	 	 1447 	 	 172 
  97 	 	 960 	 	 168 	 	 8 	 	 3766 	 	 4207 	 	 188 
  98 	 	 929 	 	 394 	 	 10 	 	 405 	 	 851 	 	 127 
  99 	 	 950 	 	 187 	 	 6 	 	 3588 	 	 4036 	 	 165 
  100 	 	 971 	 	 279 	 	 9 	 	 2598 	 	 2930 	 	 134 
 